     Program PWSCF v.6.4.1 starts on  2Feb2021 at  9:14:58

     R & G space division:  proc/nbgrp/npool/nimage =      64
     Waiting for input...
     Reading input from standard input
Warning: card &IONS ignored
Warning: card                 ION_DYNAMICS = 'BFGS', ignored
Warning: card / ignored

     Current dimensions of program PWSCF are:
     Max number of different atomic species (ntypx) = 10
     Max number of k-points (npk) =  40000
     Max angular momentum in pseudopotentials (lmaxx) =  3

     IMPORTANT: XC functional enforced from input :
     Exchange-correlation      = VDW-DF ( 1  4  4  0 1 0)
     Any further DFT definition will be discarded
     Please, verify this is what you really want

               file C.pbe-n-kjpaw_psl.1.0.0.UPF: wavefunction(s)  2S 2P renormalized
               file H.pbe-kjpaw_psl.1.0.0.UPF: wavefunction(s)  1S renormalized
               file N.pbe-n-kjpaw_psl.1.0.0.UPF: wavefunction(s)  2S renormalized

     Subspace diagonalization in iterative solution of the eigenvalue problem:
     a serial algorithm will be used

     bravais-lattice index     =            0
     lattice parameter (alat)  =      38.3437  a.u.
     unit-cell volume          =   36065.7444 (a.u.)^3
     number of atoms/cell      =          140
     number of atomic types    =            4
     number of electrons       =       432.00
     number of Kohn-Sham states=          259
     kinetic-energy cutoff     =      28.0000  Ry
     charge density cutoff     =     280.0000  Ry
     convergence threshold     =      1.0E-06
     mixing beta               =       0.5000
     number of iterations used =            8  plain     mixing
     Exchange-correlation      = VDW-DF ( 1  4  4  0 1 0)

     celldm(1)=  38.343677  celldm(2)=   0.000000  celldm(3)=   0.000000
     celldm(4)=   0.000000  celldm(5)=   0.000000  celldm(6)=   0.000000

     crystal axes: (cart. coord. in units of alat)
               a(1) = (   1.000000   0.000000   0.000000 )
               a(2) = (   0.000000   0.865401   0.000000 )
               a(3) = (   0.000000   0.000000   0.739259 )

     reciprocal axes: (cart. coord. in units 2 pi/alat)
               b(1) = (  1.000000  0.000000  0.000000 )
               b(2) = (  0.000000  1.155534  0.000000 )
               b(3) = (  0.000000  0.000000  1.352707 )

     PseudoPot. # 1 for C  read from file:
     ../pseudos/C.pbe-n-kjpaw_psl.1.0.0.UPF
     MD5 check sum: 5f16ad9a65e90284d1d834d4ab3b0f7d
     Pseudo is Projector augmented-wave + core cor, Zval =  4.0
     Generated using "atomic" code by A. Dal Corso v.6.3
     Shape of augmentation charge: PSQ
     Using radial grid of 1073 points,  4 beta functions with:
                l(1) =   0
                l(2) =   0
                l(3) =   1
                l(4) =   1
     Q(r) pseudized with 0 coefficients

     PseudoPot. # 2 for H  read from file:
     ../pseudos/H.pbe-kjpaw_psl.1.0.0.UPF
     MD5 check sum: d81a744832360e4a8af0b0b5b123bc2a
     Pseudo is Projector augmented-wave, Zval =  1.0
     Generated using "atomic" code by A. Dal Corso v.6.3MaX
     Shape of augmentation charge: PSQ
     Using radial grid of  929 points,  2 beta functions with:
                l(1) =   0
                l(2) =   0
     Q(r) pseudized with 0 coefficients

     PseudoPot. # 3 for N  read from file:
     ../pseudos/N.pbe-n-kjpaw_psl.1.0.0.UPF
     MD5 check sum: 14c48229446f9f2d411169a3abcbc3fa
     Pseudo is Projector augmented-wave + core cor, Zval =  5.0
     Generated using "atomic" code by A. Dal Corso v.6.3
     Shape of augmentation charge: PSQ
     Using radial grid of 1085 points,  4 beta functions with:
                l(1) =   0
                l(2) =   0
                l(3) =   1
                l(4) =   1
     Q(r) pseudized with 0 coefficients

     PseudoPot. # 4 for B  read from file:
     ../pseudos/B.pbe-n-kjpaw_psl.1.0.0.UPF
     MD5 check sum: 8c825a5969375aca5c2c6ad5945b3059
     Pseudo is Projector augmented-wave + core cor, Zval =  3.0
     Generated using "atomic" code by A. Dal Corso v.6.3
     Shape of augmentation charge: PSQ
     Using radial grid of 1059 points,  4 beta functions with:
                l(1) =   0
                l(2) =   0
                l(3) =   1
                l(4) =   1
     Q(r) pseudized with 0 coefficients

     vdW kernel table read from file vdW_kernel_table
     MD5 check sum: 48e77a2e26edf626eeb0eaa751ad5cac

     atomic species   valence    mass     pseudopotential
        C              4.00    12.01070     C ( 1.00)
        H              1.00     1.00784     H ( 1.00)
        N              5.00    14.00670     N ( 1.00)
        B              3.00    10.81100     B ( 1.00)

     No symmetry found

   Cartesian axes

     site n.     atom                  positions (alat units)
         1           C   tau(   1) = (   0.3041497   0.4150724   0.4864705  )
         2           C   tau(   2) = (   0.3410822   0.4757125   0.4861655  )
         3           C   tau(   3) = (   0.4088096   0.4756736   0.4862179  )
         4           C   tau(   4) = (   0.4456601   0.4149732   0.4865639  )
         5           C   tau(   5) = (   0.4087101   0.3543509   0.4862591  )
         6           C   tau(   6) = (   0.3410131   0.3543850   0.4862182  )
         7           C   tau(   7) = (   0.2340675   0.4150915   0.4872625  )
         8           C   tau(   8) = (   0.1969636   0.4746318   0.4876526  )
         9           C   tau(   9) = (   0.1969904   0.3555167   0.4879993  )
        10           C   tau(  10) = (   0.5157355   0.4149079   0.4874117  )
        11           C   tau(  11) = (   0.5529114   0.4744016   0.4878214  )
        12           C   tau(  12) = (   0.5527590   0.3552951   0.4880551  )
        13           N   tau(  13) = (   0.1665717   0.5238927   0.4872437  )
        14           N   tau(  14) = (   0.1667537   0.3061777   0.4879558  )
        15           N   tau(  15) = (   0.5833509   0.5236312   0.4874067  )
        16           N   tau(  16) = (   0.5829997   0.3059556   0.4878838  )
        17           H   tau(  17) = (   0.3145892   0.5223896   0.4859787  )
        18           H   tau(  18) = (   0.4353727   0.5223047   0.4860785  )
        19           H   tau(  19) = (   0.4352105   0.3076682   0.4861067  )
        20           H   tau(  20) = (   0.3144526   0.3077452   0.4860271  )
        21           B   tau(  21) = (   0.1250004   0.0501526   0.3366871  )
        22           B   tau(  22) = (   0.1249985   0.1944057   0.3286662  )
        23           B   tau(  23) = (   0.1246963   0.3384616   0.3178566  )
        24           B   tau(  24) = (   0.1246684   0.4827587   0.3174797  )
        25           B   tau(  25) = (   0.1250037   0.6268418   0.3278846  )
        26           B   tau(  26) = (   0.1250298   0.7710656   0.3364680  )
        27           B   tau(  27) = (   0.3748761   0.0503637   0.3335516  )
        28           B   tau(  28) = (   0.3748669   0.1945567   0.3199236  )
        29           B   tau(  29) = (   0.3748997   0.3382736   0.3017765  )
        30           B   tau(  30) = (   0.3748900   0.4830250   0.3007733  )
        31           B   tau(  31) = (   0.3748956   0.6268502   0.3180082  )
        32           B   tau(  32) = (   0.3748838   0.7709627   0.3329991  )
        33           B   tau(  33) = (   0.6247242   0.0501858   0.3367774  )
        34           B   tau(  34) = (   0.6247331   0.1944539   0.3289050  )
        35           B   tau(  35) = (   0.6250845   0.3384829   0.3179053  )
        36           B   tau(  36) = (   0.6251194   0.4827706   0.3177186  )
        37           B   tau(  37) = (   0.6247870   0.6268308   0.3283510  )
        38           B   tau(  38) = (   0.6247434   0.7710790   0.3366345  )
        39           B   tau(  39) = (   0.8748708   0.0501032   0.3395254  )
        40           B   tau(  40) = (   0.8748828   0.1943914   0.3377010  )
        41           B   tau(  41) = (   0.8748905   0.3385347   0.3364162  )
        42           B   tau(  42) = (   0.8748979   0.4826606   0.3368827  )
        43           B   tau(  43) = (   0.8748926   0.6268063   0.3384972  )
        44           B   tau(  44) = (   0.8748774   0.7711020   0.3398090  )
        45           B   tau(  45) = (   0.0404640   0.0500970   0.3378667  )
        46           B   tau(  46) = (   0.0405108   0.1944774   0.3335886  )
        47           B   tau(  47) = (   0.0405273   0.3385719   0.3283299  )
        48           B   tau(  48) = (   0.0405584   0.4825744   0.3284840  )
        49           B   tau(  49) = (   0.0405402   0.6266919   0.3335285  )
        50           B   tau(  50) = (   0.0404855   0.7710166   0.3378211  )
        51           B   tau(  51) = (   0.2904231   0.0503349   0.3336107  )
        52           B   tau(  52) = (   0.2903695   0.1945689   0.3206473  )
        53           B   tau(  53) = (   0.2900776   0.3382758   0.3030876  )
        54           B   tau(  54) = (   0.2900409   0.4829992   0.3022053  )
        55           B   tau(  55) = (   0.2903685   0.6268066   0.3187024  )
        56           B   tau(  56) = (   0.2904464   0.7709517   0.3332235  )
        57           B   tau(  57) = (   0.5401924   0.0502378   0.3353601  )
        58           B   tau(  58) = (   0.5402816   0.1943974   0.3240774  )
        59           B   tau(  59) = (   0.5408074   0.3383630   0.3083564  )
        60           B   tau(  60) = (   0.5408692   0.4828942   0.3077405  )
[...]
       126           B   tau( 126) = (   0.4597396   0.4830183   0.3023852  )
       127           B   tau( 127) = (   0.4594210   0.6268151   0.3189282  )
       128           B   tau( 128) = (   0.4593249   0.7709662   0.3331680  )
       129           B   tau( 129) = (   0.7092621   0.0501503   0.3379744  )
       130           B   tau( 130) = (   0.7092279   0.1945214   0.3338057  )
       131           B   tau( 131) = (   0.7092416   0.3385989   0.3284364  )
       132           B   tau( 132) = (   0.7092403   0.4826002   0.3286961  )
       133           B   tau( 133) = (   0.7092421   0.6266940   0.3339505  )
       134           B   tau( 134) = (   0.7092714   0.7710578   0.3380587  )
       135           B   tau( 135) = (   0.9594780   0.0500676   0.3394383  )
       136           B   tau( 136) = (   0.9595427   0.1944065   0.3370330  )
       137           B   tau( 137) = (   0.9596176   0.3385531   0.3345847  )
       138           B   tau( 138) = (   0.9596517   0.4826361   0.3349465  )
       139           B   tau( 139) = (   0.9595696   0.6267562   0.3374890  )
       140           B   tau( 140) = (   0.9594952   0.7711158   0.3395932  )

     number of k points=    10  gaussian smearing, width (Ry)=  0.0200
                       cart. coord. in units 2pi/alat
        k(    1) = (   0.0000000   0.0000000   0.0000000), wk =   0.1250000
        k(    2) = (   0.0000000   0.2888835   0.0000000), wk =   0.2500000
        k(    3) = (   0.0000000  -0.5777670   0.0000000), wk =   0.1250000
        k(    4) = (   0.2500000   0.0000000   0.0000000), wk =   0.2500000
        k(    5) = (   0.2500000   0.2888835   0.0000000), wk =   0.2500000
        k(    6) = (   0.2500000  -0.5777670   0.0000000), wk =   0.2500000
        k(    7) = (  -0.5000000   0.0000000   0.0000000), wk =   0.1250000
        k(    8) = (  -0.5000000   0.2888835   0.0000000), wk =   0.2500000
        k(    9) = (  -0.5000000  -0.5777670   0.0000000), wk =   0.1250000
        k(   10) = (  -0.2500000   0.2888835   0.0000000), wk =   0.2500000

     Initial potential from superposition of free atoms

     starting charge  431.96554, renormalised to  432.00000

     negative rho (up, down):  6.738E-03 0.000E+00

     %%%%%%%%%%%%%%%%%%%%%%%%%%%%%%%%%%%%%%%%%%%%%%%%%%%%%%%%%%%%%%%%%%%%%%%%
     %                                                                      %
     % You are using vdW-DF, which was implemented by the Thonhauser group. %
     % Please cite the following two papers that made this development      %
     % possible and the two reviews that describe the various versions:     %
     %                                                                      %
     %   T. Thonhauser et al., PRL 115, 136402 (2015).                      %
     %   T. Thonhauser et al., PRB 76, 125112 (2007).                       %
     %   K. Berland et al., Rep. Prog. Phys. 78, 066501 (2015).             %
     %   D.C. Langreth et al., J. Phys.: Condens. Matter 21, 084203 (2009). %
     %                                                                      %
     %                                                                      %
     % If you are calculating the stress with vdW-DF, please also cite:     %
     %                                                                      %
     %   R. Sabatini et al., J. Phys.: Condens. Matter 24, 424209 (2012).   %
     %                                                                      %
     %%%%%%%%%%%%%%%%%%%%%%%%%%%%%%%%%%%%%%%%%%%%%%%%%%%%%%%%%%%%%%%%%%%%%%%%

     Starting wfcs are  548 randomized atomic wfcs
     Checking if some PAW data can be deallocated...

     Self-consistent Calculation

     iteration #  1     ecut=    28.00 Ry     beta= 0.50
     Davidson diagonalization with overlap
     ethr =  1.00E-02,  avg # of iterations =  2.0

[...]

     total energy              =   -1753.68203403 Ry
     Harris-Foulkes estimate   =   -1760.85926053 Ry
     estimated scf accuracy    <      14.86089311 Ry

[...]

     iteration #  9     ecut=    28.00 Ry     beta= 0.50
     Davidson diagonalization with overlap
     c_bands:  1 eigenvalues not converged
     ethr =  7.84E-06,  avg # of iterations = 12.2

[...]

     iteration # 10     ecut=    28.00 Ry     beta= 0.50
     Davidson diagonalization with overlap
     c_bands:  2 eigenvalues not converged
     ethr =  5.24E-06,  avg # of iterations =  8.5

[...]

     total energy              =   -1754.75518702 Ry
     Harris-Foulkes estimate   =   -1754.75518729 Ry
     estimated scf accuracy    <       0.00000216 Ry

     iteration # 22     ecut=    28.00 Ry     beta= 0.50
     Davidson diagonalization with overlap
     ethr =  3.56E-10,  avg # of iterations =  1.8

     negative rho (up, down):  2.360E-02 0.000E+00

     End of self-consistent calculation

          k = 0.0000 0.0000 0.0000 ( 90253 PWs)   bands (ev):

   -20.8807 -20.8200 -20.4723 -20.4717 -19.9933 -18.8573 -17.7063 -17.1638
   -16.5653 -16.4787 -16.4677 -16.3675 -16.2468 -16.2445 -16.1613 -16.1604
   -16.1531 -16.1466 -16.0534 -16.0506 -15.9467 -15.2966 -15.2955 -15.2172
   -15.2158 -15.2053 -15.2043 -15.1138 -15.1125 -13.9490 -13.9195 -13.8657
   -13.8531 -13.7548 -13.6515 -13.4828 -13.4592 -13.4199 -13.4070 -13.3383
   -13.1667 -13.1637 -12.9731 -12.9697 -12.7012 -12.7008 -12.7007 -12.6949
   -12.6024 -12.3580 -12.3563 -12.2426 -12.0263 -12.0226 -11.9796 -11.9770
   -11.9754 -11.9750 -11.7644 -11.6536 -11.6210 -11.6183 -11.5944 -11.5220
   -11.5211 -11.5083 -11.5078 -11.4620 -11.4607 -11.4422 -11.4419 -11.3687
   -11.3649 -11.0609 -10.8357 -10.2678 -10.0680 -10.0649  -9.3186  -9.3156
    -9.3065  -9.3037  -9.2071  -9.1958  -9.0976  -9.0663  -9.0636  -8.9987
    -8.9977  -8.9945  -8.9921  -8.8559  -8.8348  -8.8253  -8.5712  -8.5708
    -8.5255  -8.5147  -8.5135  -8.5103  -8.4262  -8.2473  -8.2451  -8.2445
    -8.2416  -8.0499  -8.0430  -8.0080  -7.8628  -7.7456  -7.6368  -7.6207
    -7.4984  -7.4143  -7.3485  -7.2823  -7.2821  -7.2582  -7.2527  -7.2350
    -7.2144  -7.1827  -7.1235  -7.0037  -6.9501  -6.9251  -6.9250  -6.9035
    -6.8559  -6.8321  -6.7756  -6.7584  -6.7432  -6.7075  -6.6994  -6.6991
    -6.6982  -6.6966  -6.6523  -6.6463  -6.5282  -6.5106  -6.4410  -6.4027
    -6.3985  -6.3617  -6.3190  -6.2829  -6.2706  -6.2508  -6.2449  -6.2428
    -5.9834  -5.9597  -5.9317  -5.6357  -5.6332  -5.5939  -5.5751  -5.4319
    -5.4249  -5.3917  -5.3831  -5.3770  -5.3452  -5.2902  -5.2606  -5.2577
    -5.0637  -5.0604  -5.0583  -5.0355  -4.9538  -4.9502  -4.8400  -4.8398
    -4.8365  -4.8325  -4.8141  -4.7865  -4.7310  -4.7305  -4.7271  -4.7253
    -4.5061  -4.1891  -4.1851  -4.0908  -4.0875  -4.0032  -3.9922  -3.9731
    -3.9688  -3.9687  -3.9625  -3.8274  -3.7462  -3.6838  -3.6004  -3.5862
    -3.5403  -3.5115  -3.2190  -3.2127  -3.2042  -3.2006  -3.1835  -3.1790
    -3.1629  -3.1474  -2.9736  -2.9077  -2.9068  -2.7304  -2.6576  -2.6481
    -2.5484  -2.5055  -2.4850  -2.2927  -2.1515  -2.0068  -1.9918  -1.9869
    -1.9861  -1.7568  -1.7170  -1.7168  -0.5642  -0.5517  -0.4494  -0.4037
    -0.3927  -0.3821  -0.3798  -0.1541  -0.1440   0.1271   0.1397   0.1749
     0.1762   0.3292   0.3739   0.3868   0.5154   0.8287   0.8401   0.9032
     1.0040   1.0492   1.1180   1.1530   1.1691   1.2201   1.2612   1.2737
     1.2842   1.3300   1.5164

[...]

          k = 0.2500-0.5778 0.0000 ( 90268 PWs)   bands (ev):

[...]

          k =-0.5000 0.0000 0.0000 ( 90252 PWs)   bands (ev):

[...]

          k =-0.2500 0.2889 0.0000 ( 90232 PWs)   bands (ev):

   -20.8807 -20.8200 -20.4724 -20.4718 -19.9933 -18.8573 -17.7064 -17.1639
   -16.5390 -16.4896 -16.4152 -16.3789 -16.3562 -16.3297 -16.2562 -16.1979
   -16.0605 -16.0124 -15.9485 -15.9383 -15.8833 -15.5853 -15.5387 -15.4683
   -15.4132 -14.9590 -14.9140 -14.8450 -14.7918 -14.2110 -14.1662 -14.0963
   -14.0430 -13.9193 -13.6509 -13.4070 -13.2598 -13.1759 -13.1541 -13.1368
   -13.0761 -13.0302 -13.0123 -12.9728 -12.7365 -12.7252 -12.6036 -12.5939
   -12.5651 -12.3482 -12.3420 -12.3050 -12.1908 -12.1651 -12.1295 -12.0952
   -12.0781 -12.0032 -11.9946 -11.9720 -11.8723 -11.7639 -11.6958 -11.6737
   -11.5963 -11.5851 -11.5341 -11.3477 -11.2980 -11.1192 -11.0484 -10.9833
   -10.9114 -10.8645 -10.8358 -10.1408 -10.0968 -10.0287  -9.8841  -9.7394
    -9.6661  -9.4549  -9.4122  -9.2608  -9.2070  -9.1942  -9.0397  -8.9738
    -8.8544  -8.8350  -8.7436  -8.7216  -8.5987  -8.5390  -8.5204  -8.4984
    -8.4788  -8.4480  -8.4237  -8.3999  -8.3001  -8.2938  -8.2700  -8.1293
    -8.1147  -8.0496  -8.0084  -7.8630  -7.8406  -7.8105  -7.7789  -7.7352
    -7.6851  -7.6784  -7.4575  -7.4498  -7.4264  -7.3713  -7.2535  -7.2358
    -7.2025  -7.1327  -7.1147  -7.0432  -7.0403  -6.9482  -6.8952  -6.8603
    -6.8274  -6.8172  -6.7839  -6.7802  -6.7513  -6.7351  -6.7248  -6.6370
    -6.6183  -6.6043  -6.5441  -6.5436  -6.5301  -6.5191  -6.4098  -6.3838
    -6.3369  -6.3313  -6.2938  -6.2633  -6.2120  -6.1702  -6.1359  -5.9913
    -5.9687  -5.9401  -5.9064  -5.8689  -5.8577  -5.7117  -5.6505  -5.6226
    -5.5668  -5.4846  -5.4383  -5.4261  -5.3573  -5.3009  -5.2515  -5.1319
    -5.1053  -5.0888  -5.0248  -4.9825  -4.9628  -4.8878  -4.8797  -4.8514
    -4.8042  -4.7440  -4.6749  -4.6529  -4.5598  -4.5575  -4.5485  -4.5435
    -4.5262  -4.4228  -4.4103  -4.2381  -4.1980  -4.1012  -3.9921  -3.9645
    -3.9316  -3.8759  -3.8175  -3.7878  -3.7266  -3.7168  -3.6730  -3.6669
    -3.6652  -3.5417  -3.4722  -3.4646  -3.4445  -3.3044  -3.1909  -3.1539
    -3.1085  -2.9509  -2.9058  -2.7634  -2.7049  -2.6383  -2.5286  -2.4750
    -2.4253  -2.3813  -2.3230  -2.2801  -2.1607  -2.0914  -2.0575  -1.9968
    -1.9221  -1.7300  -1.6688  -1.3606  -1.1050  -1.0740  -1.0443  -0.5680
    -0.5325  -0.4716  -0.2247  -0.2060  -0.1000  -0.0485   0.2220   0.2622
     0.3718   0.4516   0.7859   0.8111   0.8728   0.8865   0.9344   1.0036
     1.0368   1.0471   1.0805   1.1093   1.1327   1.2444   1.2644   1.2688
     1.2871   1.3369   1.3893

     the Fermi energy is    -2.4930 ev

!    total energy              =   -1754.75518719 Ry
     Harris-Foulkes estimate   =   -1754.75518721 Ry
     estimated scf accuracy    <       0.00000023 Ry

     total all-electron energy =     -7361.841205 Ry

     The total energy is the sum of the following terms:

     one-electron contribution =   -5363.89929060 Ry
     hartree contribution      =    2764.81340230 Ry
     xc contribution           =    -441.93618511 Ry
     ewald contribution        =    2052.37107216 Ry
     one-center paw contrib.   =    -766.02724008 Ry
     smearing contrib. (-TS)   =      -0.07694585 Ry

     convergence has been achieved in  22 iterations

     Writing output data file TCNQ-s1.save/

     General routines

     Parallel routines

   This run was terminated on:  10: 4:13   2Feb2021

   JOB DONE.