     Program PWSCF v.6.4.1 starts on  9Feb2021 at 14: 5:28

     R & G space division:  proc/nbgrp/npool/nimage =      64
     Waiting for input...
     Reading input from standard input

     Current dimensions of program PWSCF are:
     Max number of different atomic species (ntypx) = 10
     Max number of k-points (npk) =  40000
     Max angular momentum in pseudopotentials (lmaxx) =  3

     IMPORTANT: XC functional enforced from input :
     Exchange-correlation      = VDW-DF ( 1  4  4  0 1 0)
     Any further DFT definition will be discarded
     Please, verify this is what you really want

               file C.pbe-n-kjpaw_psl.1.0.0.UPF: wavefunction(s)  2S 2P renormalized
               file H.pbe-kjpaw_psl.1.0.0.UPF: wavefunction(s)  1S renormalized
               file N.pbe-n-kjpaw_psl.1.0.0.UPF: wavefunction(s)  2S renormalized

     Subspace diagonalization in iterative solution of the eigenvalue problem:
     a serial algorithm will be used

     bravais-lattice index     =            0
     lattice parameter (alat)  =      38.3437  a.u.
     unit-cell volume          =   36065.7444 (a.u.)^3
     number of atoms/cell      =          140
     number of atomic types    =            4
     number of electrons       =       432.00
     number of Kohn-Sham states=          259
     kinetic-energy cutoff     =      28.0000  Ry
     charge density cutoff     =     280.0000  Ry
     convergence threshold     =      1.0E-06
     mixing beta               =       0.5000
     number of iterations used =            8  plain     mixing
     Exchange-correlation      = VDW-DF ( 1  4  4  0 1 0)
     nstep                     =           50

     celldm(1)=  38.343677  celldm(2)=   0.000000  celldm(3)=   0.000000
     celldm(4)=   0.000000  celldm(5)=   0.000000  celldm(6)=   0.000000

     crystal axes: (cart. coord. in units of alat)
               a(1) = (   1.000000   0.000000   0.000000 )
               a(2) = (   0.000000   0.865401   0.000000 )
               a(3) = (   0.000000   0.000000   0.739259 )

     reciprocal axes: (cart. coord. in units 2 pi/alat)
               b(1) = (  1.000000  0.000000  0.000000 )
               b(2) = (  0.000000  1.155534  0.000000 )
               b(3) = (  0.000000  0.000000  1.352707 )

     PseudoPot. # 1 for C  read from file:
     ../pseudos/C.pbe-n-kjpaw_psl.1.0.0.UPF
     MD5 check sum: 5f16ad9a65e90284d1d834d4ab3b0f7d
     Pseudo is Projector augmented-wave + core cor, Zval =  4.0
     Generated using "atomic" code by A. Dal Corso v.6.3
     Shape of augmentation charge: PSQ
     Using radial grid of 1073 points,  4 beta functions with:
                l(1) =   0
                l(2) =   0
                l(3) =   1
                l(4) =   1
     Q(r) pseudized with 0 coefficients

     PseudoPot. # 2 for H  read from file:
     ../pseudos/H.pbe-kjpaw_psl.1.0.0.UPF
     MD5 check sum: d81a744832360e4a8af0b0b5b123bc2a
     Pseudo is Projector augmented-wave, Zval =  1.0
     Generated using "atomic" code by A. Dal Corso v.6.3MaX
     Shape of augmentation charge: PSQ
     Using radial grid of  929 points,  2 beta functions with:
                l(1) =   0
                l(2) =   0
     Q(r) pseudized with 0 coefficients

     PseudoPot. # 3 for N  read from file:
     ../pseudos/N.pbe-n-kjpaw_psl.1.0.0.UPF
     MD5 check sum: 14c48229446f9f2d411169a3abcbc3fa
     Pseudo is Projector augmented-wave + core cor, Zval =  5.0
     Generated using "atomic" code by A. Dal Corso v.6.3
     Shape of augmentation charge: PSQ
     Using radial grid of 1085 points,  4 beta functions with:
                l(1) =   0
                l(2) =   0
                l(3) =   1
                l(4) =   1
     Q(r) pseudized with 0 coefficients

     PseudoPot. # 4 for B  read from file:
     ../pseudos/B.pbe-n-kjpaw_psl.1.0.0.UPF
     MD5 check sum: 8c825a5969375aca5c2c6ad5945b3059
     Pseudo is Projector augmented-wave + core cor, Zval =  3.0
     Generated using "atomic" code by A. Dal Corso v.6.3
     Shape of augmentation charge: PSQ
     Using radial grid of 1059 points,  4 beta functions with:
                l(1) =   0
                l(2) =   0
                l(3) =   1
                l(4) =   1
     Q(r) pseudized with 0 coefficients

     vdW kernel table read from file vdW_kernel_table
     MD5 check sum: 48e77a2e26edf626eeb0eaa751ad5cac

     atomic species   valence    mass     pseudopotential
        C              4.00    12.01070     C ( 1.00)
        H              1.00     1.00784     H ( 1.00)
        N              5.00    14.00670     N ( 1.00)
        B              3.00    10.81100     B ( 1.00)

     No symmetry found

   Cartesian axes

     site n.     atom                  positions (alat units)
         1           C   tau(   1) = (   0.3041497   0.4150724   0.4864705  )
         2           C   tau(   2) = (   0.3410822   0.4757125   0.4861655  )
         3           C   tau(   3) = (   0.4088096   0.4756736   0.4862179  )
         4           C   tau(   4) = (   0.4456601   0.4149732   0.4865639  )
         5           C   tau(   5) = (   0.4087101   0.3543509   0.4862591  )
         6           C   tau(   6) = (   0.3410131   0.3543850   0.4862182  )
         7           C   tau(   7) = (   0.2340675   0.4150915   0.4872625  )
         8           C   tau(   8) = (   0.1969636   0.4746318   0.4876526  )
         9           C   tau(   9) = (   0.1969904   0.3555167   0.4879993  )
        10           C   tau(  10) = (   0.5157355   0.4149079   0.4874117  )
        11           C   tau(  11) = (   0.5529114   0.4744016   0.4878214  )
        12           C   tau(  12) = (   0.5527590   0.3552951   0.4880551  )
        13           N   tau(  13) = (   0.1665717   0.5238927   0.4872437  )
        14           N   tau(  14) = (   0.1667537   0.3061777   0.4879558  )
        15           N   tau(  15) = (   0.5833509   0.5236312   0.4874067  )
        16           N   tau(  16) = (   0.5829997   0.3059556   0.4878838  )
        17           H   tau(  17) = (   0.3145892   0.5223896   0.4859787  )
        18           H   tau(  18) = (   0.4353727   0.5223047   0.4860785  )
        19           H   tau(  19) = (   0.4352105   0.3076682   0.4861067  )
        20           H   tau(  20) = (   0.3144526   0.3077452   0.4860271  )
        21           B   tau(  21) = (   0.1250004   0.0501526   0.3366871  )
        22           B   tau(  22) = (   0.1249985   0.1944057   0.3286662  )
        23           B   tau(  23) = (   0.1246963   0.3384616   0.3178566  )
        24           B   tau(  24) = (   0.1246684   0.4827587   0.3174797  )
        25           B   tau(  25) = (   0.1250037   0.6268418   0.3278846  )
        26           B   tau(  26) = (   0.1250298   0.7710656   0.3364680  )
        27           B   tau(  27) = (   0.3748761   0.0503637   0.3335516  )
        28           B   tau(  28) = (   0.3748669   0.1945567   0.3199236  )
        29           B   tau(  29) = (   0.3748997   0.3382736   0.3017765  )
        30           B   tau(  30) = (   0.3748900   0.4830250   0.3007733  )
        31           B   tau(  31) = (   0.3748956   0.6268502   0.3180082  )
        32           B   tau(  32) = (   0.3748838   0.7709627   0.3329991  )
        33           B   tau(  33) = (   0.6247242   0.0501858   0.3367774  )
        34           B   tau(  34) = (   0.6247331   0.1944539   0.3289050  )
        35           B   tau(  35) = (   0.6250845   0.3384829   0.3179053  )
        36           B   tau(  36) = (   0.6251194   0.4827706   0.3177186  )
        37           B   tau(  37) = (   0.6247870   0.6268308   0.3283510  )
        38           B   tau(  38) = (   0.6247434   0.7710790   0.3366345  )
        39           B   tau(  39) = (   0.8748708   0.0501032   0.3395254  )
        40           B   tau(  40) = (   0.8748828   0.1943914   0.3377010  )
        41           B   tau(  41) = (   0.8748905   0.3385347   0.3364162  )
        42           B   tau(  42) = (   0.8748979   0.4826606   0.3368827  )
        43           B   tau(  43) = (   0.8748926   0.6268063   0.3384972  )
        44           B   tau(  44) = (   0.8748774   0.7711020   0.3398090  )
        45           B   tau(  45) = (   0.0404640   0.0500970   0.3378667  )
        46           B   tau(  46) = (   0.0405108   0.1944774   0.3335886  )
        47           B   tau(  47) = (   0.0405273   0.3385719   0.3283299  )
        48           B   tau(  48) = (   0.0405584   0.4825744   0.3284840  )
        49           B   tau(  49) = (   0.0405402   0.6266919   0.3335285  )
        50           B   tau(  50) = (   0.0404855   0.7710166   0.3378211  )
        51           B   tau(  51) = (   0.2904231   0.0503349   0.3336107  )
        52           B   tau(  52) = (   0.2903695   0.1945689   0.3206473  )
        53           B   tau(  53) = (   0.2900776   0.3382758   0.3030876  )
        54           B   tau(  54) = (   0.2900409   0.4829992   0.3022053  )
        55           B   tau(  55) = (   0.2903685   0.6268066   0.3187024  )
        56           B   tau(  56) = (   0.2904464   0.7709517   0.3332235  )
        57           B   tau(  57) = (   0.5401924   0.0502378   0.3353601  )
        58           B   tau(  58) = (   0.5402816   0.1943974   0.3240774  )
        59           B   tau(  59) = (   0.5408074   0.3383630   0.3083564  )
        60           B   tau(  60) = (   0.5408692   0.4828942   0.3077405  )
[...]
       126           B   tau( 126) = (   0.4597396   0.4830183   0.3023852  )
       127           B   tau( 127) = (   0.4594210   0.6268151   0.3189282  )
       128           B   tau( 128) = (   0.4593249   0.7709662   0.3331680  )
       129           B   tau( 129) = (   0.7092621   0.0501503   0.3379744  )
       130           B   tau( 130) = (   0.7092279   0.1945214   0.3338057  )
       131           B   tau( 131) = (   0.7092416   0.3385989   0.3284364  )
       132           B   tau( 132) = (   0.7092403   0.4826002   0.3286961  )
       133           B   tau( 133) = (   0.7092421   0.6266940   0.3339505  )
       134           B   tau( 134) = (   0.7092714   0.7710578   0.3380587  )
       135           B   tau( 135) = (   0.9594780   0.0500676   0.3394383  )
       136           B   tau( 136) = (   0.9595427   0.1944065   0.3370330  )
       137           B   tau( 137) = (   0.9596176   0.3385531   0.3345847  )
       138           B   tau( 138) = (   0.9596517   0.4826361   0.3349465  )
       139           B   tau( 139) = (   0.9595696   0.6267562   0.3374890  )
       140           B   tau( 140) = (   0.9594952   0.7711158   0.3395932  )

     number of k points=    10  gaussian smearing, width (Ry)=  0.0200
                       cart. coord. in units 2pi/alat
        k(    1) = (   0.0000000   0.0000000   0.0000000), wk =   0.1250000
        k(    2) = (   0.0000000   0.2888835   0.0000000), wk =   0.2500000
        k(    3) = (   0.0000000  -0.5777670   0.0000000), wk =   0.1250000
        k(    4) = (   0.2500000   0.0000000   0.0000000), wk =   0.2500000
        k(    5) = (   0.2500000   0.2888835   0.0000000), wk =   0.2500000
        k(    6) = (   0.2500000  -0.5777670   0.0000000), wk =   0.2500000
[...]
B        7.606840535  12.719176222   6.452643280
B        7.606618244  15.643124351   6.756779364
B       12.675904299   1.018340869   6.833508493
B       12.676110164   3.945654048   6.673662422
B       12.683492780   6.867815773   6.450583289
B       12.684193085   9.795910725   6.446769293
B       12.677116517  12.718726897   6.662401824
B       12.676236350  15.645588365   6.830540039
B       17.751617011   1.016403568   6.889241521
B       17.751853645   3.944325565   6.852184977
B       17.752011604   6.869182879   6.825965012
B       17.752202862   9.793295793   6.835420176
B       17.752065667  12.718189601   6.868163243
B       17.751730917  15.646176330   6.894934036
B        0.820885072   1.016688425   6.855570598
B        0.821957077   3.946171195   6.768750158
B        0.822078283   6.870184931   6.662076675
B        0.822669986   9.791790397   6.665131096
B        0.822493487  12.716001096   6.767568539
B        0.821337358  15.644606766   6.854670023
B        5.892713533   1.021335942   6.769027961
B        5.891542871   3.948011672   6.505977361
B        5.885627327   6.863931124   6.149918896
B        5.884884052   9.800485269   6.131890812
B        5.891538359  12.718523073   6.466667865
B        5.893131827  15.643100200   6.761037945
B       10.960740352   1.019381209   6.804634201
B       10.962493746   3.944643578   6.575638639
B       10.973068008   6.865364255   6.256733927
B       10.974168181   9.798658523   6.244305301
[...]
B        9.328704431   9.800829329   6.135525932
B        9.322093743  12.718605407   6.471202424
B        9.320159857  15.643411873   6.759965531
B       14.391554884   1.017738006   6.857765797
B       14.390736238   3.947009259   6.773150123
B       14.391218078   6.870686519   6.664237115
B       14.391094564   9.792202131   6.669466995
B       14.390962346  12.716061855   6.776144876
B       14.391649208  15.645369626   6.859476738
B       19.468631304   1.016053037   6.887393709
B       19.469986902   3.944715714   6.838639583
B       19.471575926   6.869559352   6.788915755
B       19.472178602   9.793085609   6.796299312
B       19.470550414  12.717512941   6.847906637
B       19.468958375  15.646345227   6.890558417

     Writing output data file TCNQ-s1.save/
     NEW-OLD atomic charge density approx. for the potential

[...]

     energy   old            =   -1754.7551871869 Ry
     energy   new            =   -1754.7498319007 Ry

     CASE: energy  _new > energy  _old

[...]

     CASE: energy  _new < energy  _old

[...]

     Threshold (ethr) on eigenvalues was too large:
     Diagonalizing with lowered threshold

     Davidson diagonalization with overlap
     ethr =  5.45E-08,  avg # of iterations =  3.0

[...]

     Self-consistent Calculation

[...]

     Threshold (ethr) on eigenvalues was too large:
     Diagonalizing with lowered threshold

     Davidson diagonalization with overlap
     ethr =  6.34E-08,  avg # of iterations =  2.0

[...]

     total energy              =   -1754.76084330 Ry
     Harris-Foulkes estimate   =   -1754.76084331 Ry
     estimated scf accuracy    <       0.00000003 Ry

     iteration # 15     ecut=    28.00 Ry     beta= 0.50
     Davidson diagonalization with overlap
     ethr =  5.77E-12,  avg # of iterations =  1.9

[...]

     End of self-consistent calculation

[...]

          k = 0.2500-0.5778 0.0000 ( 90268 PWs)   bands (ev):

[...]

          k =-0.2500 0.2889 0.0000 ( 90232 PWs)   bands (ev):

   -20.8387 -20.7685 -20.4046 -20.4031 -19.9896 -18.8533 -17.7063 -17.1498
   -16.5266 -16.4777 -16.4025 -16.3659 -16.3436 -16.3171 -16.2429 -16.1847
   -16.0474 -15.9998 -15.9632 -15.9264 -15.8698 -15.5719 -15.5256 -15.4544
   -15.3992 -14.9452 -14.9002 -14.8308 -14.7773 -14.1978 -14.1528 -14.0826
   -14.0289 -13.9170 -13.6499 -13.4131 -13.2658 -13.1600 -13.1564 -13.1172
   -13.0564 -13.0181 -13.0101 -12.9790 -12.7424 -12.7309 -12.6079 -12.5997
   -12.5713 -12.3541 -12.3478 -12.3113 -12.1971 -12.1459 -12.1100 -12.0997
   -12.0614 -12.0001 -11.9848 -11.9782 -11.8756 -11.7639 -11.7017 -11.6801
   -11.5917 -11.5876 -11.5399 -11.3541 -11.3037 -11.1252 -11.0283 -10.9627
   -10.8909 -10.8431 -10.8314 -10.1426 -10.0822 -10.0284  -9.8643  -9.7177
    -9.6432  -9.4575  -9.4104  -9.2574  -9.2184  -9.1785  -9.0428  -8.9875
    -8.8442  -8.8209  -8.7345  -8.7285  -8.6028  -8.5172  -8.5023  -8.4977
    -8.4806  -8.4314  -8.4135  -8.4101  -8.3071  -8.3044  -8.2810  -8.1255
    -8.1181  -8.0535  -7.9875  -7.8527  -7.8190  -7.8153  -7.7569  -7.7457
    -7.6655  -7.6575  -7.4621  -7.4525  -7.4314  -7.3642  -7.2461  -7.2440
    -7.1745  -7.1164  -7.1141  -7.0326  -7.0282  -6.9564  -6.8851  -6.8561
    -6.8262  -6.8193  -6.7837  -6.7768  -6.7406  -6.7371  -6.7356  -6.6277
    -6.6238  -6.6023  -6.5449  -6.5417  -6.5260  -6.5188  -6.3944  -6.3864
    -6.3013  -6.2999  -6.2965  -6.2299  -6.1887  -6.1820  -6.1258  -5.9628
    -5.9325  -5.9188  -5.9155  -5.8829  -5.8504  -5.7134  -5.6460  -5.6209
    -5.5791  -5.4755  -5.4489  -5.4175  -5.3596  -5.3053  -5.2596  -5.1219
    -5.1171  -5.0937  -5.0108  -4.9883  -4.9693  -4.8953  -4.8818  -4.8588
    -4.8230  -4.7453  -4.6736  -4.6565  -4.5600  -4.5574  -4.5550  -4.5496
    -4.5344  -4.4256  -4.4215  -4.2488  -4.2080  -4.0988  -4.0119  -3.9612
    -3.9437  -3.8742  -3.8380  -3.7979  -3.7408  -3.7131  -3.6863  -3.6639
    -3.6556  -3.5629  -3.4667  -3.4586  -3.4369  -3.3145  -3.1993  -3.1684
    -3.1299  -2.9634  -2.8948  -2.7877  -2.7131  -2.6205  -2.5376  -2.4778
    -2.4154  -2.3725  -2.3342  -2.2771  -2.1639  -2.1117  -2.0485  -1.9999
    -1.9318  -1.7294  -1.6869  -1.3582  -1.1066  -1.0625  -1.0586  -0.5608
    -0.5328  -0.4615  -0.2270  -0.2076  -0.1144  -0.0490   0.2236   0.2719
     0.3480   0.4494   0.7761   0.8160   0.8516   0.8697   0.9110   0.9695
     1.0146   1.0410   1.0723   1.1074   1.1250   1.2364   1.2402   1.2578
     1.2823   1.3277   1.3872

     the Fermi energy is    -2.4940 ev

!    total energy              =   -1754.76084329 Ry
     Harris-Foulkes estimate   =   -1754.76084330 Ry
     estimated scf accuracy    <          7.7E-09 Ry

     total all-electron energy =     -7361.846862 Ry

     The total energy is the sum of the following terms:

     one-electron contribution =   -5308.87457105 Ry
     hartree contribution      =    2737.24850769 Ry
     xc contribution           =    -441.73221976 Ry
     ewald contribution        =    2024.70684989 Ry
     one-center paw contrib.   =    -766.03204910 Ry
     smearing contrib. (-TS)   =      -0.07736096 Ry

     convergence has been achieved in  15 iterations

[...]

     Forces acting on atoms (cartesian axes, Ry/au):

     atom    1 type  1   force =     0.00038039   -0.00011403   -0.00081314
     atom    2 type  1   force =    -0.00037015    0.00066758   -0.00019733
     atom    3 type  1   force =     0.00010164   -0.00008340   -0.00024994
     atom    4 type  1   force =    -0.00013207    0.00051903   -0.00083974
     atom    5 type  1   force =     0.00005612   -0.00063569   -0.00017465
     atom    6 type  1   force =    -0.00029671   -0.00018987   -0.00017911
     atom    7 type  1   force =    -0.00024347   -0.00020417   -0.00007811
     atom    8 type  1   force =    -0.00067040    0.00101615   -0.00029044
     atom    9 type  1   force =     0.00075076    0.00045419    0.00001467
     atom   10 type  1   force =    -0.00016405    0.00003573   -0.00031346
     atom   11 type  1   force =    -0.00009525   -0.00052377   -0.00024050
     atom   12 type  1   force =    -0.00005779   -0.00043914   -0.00016954
     atom   13 type  3   force =     0.00091413   -0.00028773   -0.00020599
     atom   14 type  3   force =    -0.00009502   -0.00097099   -0.00023472
     atom   15 type  3   force =    -0.00032600    0.00090180   -0.00022256
     atom   16 type  3   force =    -0.00071015   -0.00001140   -0.00023047
     atom   17 type  2   force =    -0.00015104    0.00025233    0.00034218
     atom   18 type  2   force =     0.00017114    0.00050610    0.00025785
     atom   19 type  2   force =     0.00009039   -0.00025810    0.00006237
     atom   20 type  2   force =    -0.00022656   -0.00033311    0.00016679
     atom   21 type  4   force =    -0.00013701   -0.00011631   -0.00007127
     atom   22 type  4   force =     0.00001531    0.00004003    0.00015979
     atom   23 type  4   force =     0.00002517   -0.00010764   -0.00025151
     atom   24 type  4   force =     0.00010027   -0.00031279   -0.00024733
     atom   25 type  4   force =     0.00016328   -0.00038143    0.00022282
     atom   26 type  4   force =    -0.00007888    0.00002521   -0.00010772
     atom   27 type  4   force =    -0.00001749   -0.00042643   -0.00038505
     atom   28 type  4   force =    -0.00013797   -0.00035597   -0.00053632
     atom   29 type  4   force =     0.00006168   -0.00014673    0.00038080
     atom   30 type  4   force =     0.00000802   -0.00026121    0.00015024
     atom   31 type  4   force =     0.00013481   -0.00016822   -0.00032384
     atom   32 type  4   force =     0.00001007    0.00027160   -0.00025149
     atom   33 type  4   force =     0.00016964   -0.00012566   -0.00014567
     atom   34 type  4   force =    -0.00009925    0.00009761    0.00024378
     atom   35 type  4   force =     0.00001659   -0.00007179   -0.00032900
     atom   36 type  4   force =     0.00003002   -0.00027678   -0.00039629
     atom   37 type  4   force =    -0.00003112   -0.00027579    0.00022521
     atom   38 type  4   force =     0.00005288    0.00004897   -0.00010664
     atom   39 type  4   force =    -0.00005387   -0.00008951    0.00016224
     atom   40 type  4   force =    -0.00002240   -0.00026830    0.00018209
     atom   41 type  4   force =    -0.00006373   -0.00035015    0.00068134
     atom   42 type  4   force =     0.00008448   -0.00016675    0.00061378
     atom   43 type  4   force =     0.00002766   -0.00018818    0.00042269
     atom   44 type  4   force =     0.00007625   -0.00014140    0.00031358
     atom   45 type  4   force =     0.00005330    0.00008831    0.00011046
     atom   46 type  4   force =    -0.00000337   -0.00003189    0.00002709
     atom   47 type  4   force =     0.00015996   -0.00030539    0.00018183
     atom   48 type  4   force =     0.00028678    0.00002571    0.00016733
     atom   49 type  4   force =     0.00001399    0.00021742    0.00004088
     atom   50 type  4   force =     0.00010188    0.00016347    0.00005984
     atom   51 type  4   force =    -0.00019922    0.00034552    0.00001627
     atom   52 type  4   force =    -0.00007260   -0.00011539    0.00039246
     atom   53 type  4   force =    -0.00006512   -0.00029534    0.00026278
     atom   54 type  4   force =    -0.00016378    0.00008035    0.00045027
     atom   55 type  4   force =     0.00017102    0.00017211    0.00034010
     atom   56 type  4   force =    -0.00012260   -0.00001278   -0.00005888
     atom   57 type  4   force =     0.00016335    0.00041433   -0.00027471
     atom   58 type  4   force =    -0.00001692    0.00044389   -0.00037821
     atom   59 type  4   force =     0.00012185   -0.00015699    0.00001751
     atom   60 type  4   force =     0.00024020    0.00002484   -0.00033855
[...]
     atom  126 type  4   force =     0.00016146    0.00036953    0.00043191
     atom  127 type  4   force =     0.00003666    0.00030087    0.00039681
     atom  128 type  4   force =     0.00015326   -0.00012426   -0.00004256
     atom  129 type  4   force =    -0.00008445   -0.00005405    0.00015007
     atom  130 type  4   force =    -0.00003000   -0.00012541    0.00003558
     atom  131 type  4   force =    -0.00018469   -0.00027313    0.00015792
     atom  132 type  4   force =    -0.00017208   -0.00003306    0.00027608
     atom  133 type  4   force =     0.00004011    0.00033990    0.00017116
     atom  134 type  4   force =    -0.00000062    0.00006133    0.00014100
     atom  135 type  4   force =     0.00003062    0.00028869    0.00012698
     atom  136 type  4   force =    -0.00003086    0.00012817   -0.00006392
     atom  137 type  4   force =     0.00015582   -0.00003059   -0.00008895
     atom  138 type  4   force =     0.00026269    0.00008800   -0.00030537
     atom  139 type  4   force =    -0.00003162   -0.00004582   -0.00000059
     atom  140 type  4   force =     0.00007534    0.00008133    0.00006053

     Total force =     0.005066     Total SCF correction =     0.000150

     number of scf cycles    =  50
     number of bfgs steps    =  48

     energy   old            =   -1754.7607948967 Ry
     energy   new            =   -1754.7608432852 Ry

     CASE: energy  _new < energy  _old

     new trust radius        =       0.0099998271 bohr
     new conv_thr            =       0.0000000100 Ry

ATOMIC_POSITIONS (angstrom)
C        6.160428250   8.658912514   9.933452310
C        6.909578548   9.886453622   9.928514446
C        8.284025711   9.884746483   9.931577832
C        9.030134190   8.655332739   9.939316025
C        8.281285567   7.427489379   9.927682599
C        6.906476621   7.429174857   9.924574984
C        4.738175743   8.661743304   9.941176499
C        3.985376798   9.869431552   9.948621489
C        3.983492952   7.454686771   9.941924179
C       10.452181604   8.654924063   9.950957425
C       11.207147606   9.861393441   9.957596994
C       11.205342820   7.446729506   9.952104945
N        3.355999561  10.868144444   9.940391276
N        3.361230265   6.451790155   9.929062133
N       11.840732697  10.857370558   9.947990799
N       11.829087549   6.444682563   9.939384124
H        6.371897007  10.838585464   9.917239695
H        8.824394304  10.835389217   9.923010864
H        8.819263539   6.475512512   9.919191099
H        6.366932684   6.478180145   9.913028751
B        2.540829080   0.977939256   6.832939214
B        2.538990084   3.904411910   6.653305796
B        2.529751507   6.828100094   6.439929057
B        2.528570177   9.757984890   6.434275256
B        2.536838251  12.681811597   6.637219236
B        2.540696047  15.606085028   6.831589762
B        7.608671575   0.980291148   6.650501744
B        7.609482134   3.904652511   6.378997057
B        7.608457147   6.824505957   6.059394611
B        7.608275671   9.761246266   6.044459974
B        7.607713102  12.681662575   6.355194130
B        7.608598064  15.603692144   6.645601275
B       12.676408154   0.977984313   6.836932421
B       12.678949416   3.904236964   6.654628721
B       12.687438490   6.827982109   6.443324705
B       12.687465864   9.757687407   6.438865541
B       12.678977996  12.681328129   6.641653701
B       12.676410955  15.605864559   6.836013289
B       17.754270339   0.976732090   6.993852066
B       17.754335630   3.905076861   6.934018348
B       17.754097289   6.830554381   6.865534923
B       17.753347388   9.755156469   6.872676821
B       17.753493699  12.679828769   6.939246558
B       17.753323417  15.607098829   6.997224914
B        0.825816755   0.978087759   6.913572041
B        0.826700535   3.907265752   6.806308826
B        0.824137542   6.832114040   6.675097067
B        0.823656984   9.753843838   6.679807557
B        0.825893274  12.677071849   6.803011307
B        0.825674303  15.604767087   6.915186271
B        5.894822807   0.978853901   6.660074174
B        5.891905440   3.904863775   6.396195529
B        5.885004852   6.826373496   6.093879725
B        5.884062715   9.760643439   6.075964444
B        5.889883297  12.681148139   6.371578804
B        5.894533384  15.604439110   6.658611067
B       10.962472894   0.976209390   6.747648306
B       10.967827107   3.900578525   6.507321565
B       10.978157856   6.825017594   6.223055043
B       10.978438322   9.760177153   6.213023711
[...]
B        9.332341976   9.759696792   6.079164657
B        9.325749727  12.680446691   6.375220627
B        9.322559439  15.604615478   6.660926162
B       14.391786050   0.978869350   6.915553773
B       14.391123268   3.907601951   6.808072668
B       14.393169698   6.831977051   6.679165363
B       14.392691892   9.753675899   6.681189409
B       14.390459393  12.676506748   6.804688186
B       14.390951603  15.605066858   6.918105693
B       19.472839344   0.976596771   6.982615598
B       19.474487924   3.905305918   6.913051168
B       19.474449632   6.830565622   6.829369067
B       19.474192302   9.755022420   6.838028751
B       19.473836329  12.679747687   6.914844018
B       19.472534710  15.606631668   6.985416784

     Writing output data file TCNQ-s1.save/
     NEW-OLD atomic charge density approx. for the potential

     negative rho (up, down):  2.333E-02 0.000E+00

     Writing output data file TCNQ-s1.save/

     General routines

     Parallel routines

   This run was terminated on:  14:52: 3  10Feb2021

   JOB DONE.